NAME: Tnm181
COMMENT: Imported from tnm log files (not double checked for validity should be 2829701)
TYPE: TOUR
DIMENSION: 181
TOUR_SECTION:
1
150
147
144
141
138
135
132
129
126
123
120
117
114
111
108
105
102
99
96
93
90
87
84
81
78
75
72
69
66
63
60
57
54
51
48
45
42
39
36
33
30
27
24
172
169
166
163
160
157
154
21
18
15
12
9
6
3
149
146
143
151
140
137
134
131
128
125
122
119
116
113
110
107
104
101
98
95
92
89
86
83
80
77
74
71
68
65
62
59
56
53
50
47
44
41
38
35
32
29
26
23
20
17
159
156
14
11
8
5
2
148
145
142
153
139
136
133
130
127
124
121
118
115
112
109
106
103
100
97
94
91
88
85
82
79
76
162
165
168
171
174
177
180
181
178
175
179
176
173
170
167
164
161
73
70
67
64
61
58
55
52
49
46
43
40
37
34
31
28
25
22
19
16
158
155
13
10
7
152
4
-1
EOF
